(set-logic FO)
(declare-sort Term 0)
(declare-fun p (Term) Bool)
(declare-fun a () Term)
(declare-fun b () Term)
(declare-fun c () Term)
(set-info :status unsat)
(assert (not (<=> (forall ((x Term)) (=> (and (p a) (=> (p x) (p b))) (p c))) (and (forall ((x Term)) (or (not (p a)) (or (p x) (p c)))) (or (not (p a)) (or (not (p b)) (p c)))))))
(check-sat)
(exit)
